c numero: 9
c nombre: n-20-d-0.5
c densidad: 0.5
p edges 20 95
e 1 3
e 1 4
e 1 8
e 1 9
e 1 13
e 1 14
e 1 17
e 1 18
e 2 4
e 2 5
e 2 7
e 2 8
e 2 9
e 2 12
e 2 14
e 2 15
e 2 17
e 3 4
e 3 5
e 3 9
e 3 10
e 3 13
e 3 16
e 3 18
e 3 20
e 4 5
e 4 7
e 4 9
e 4 13
e 4 14
e 4 15
e 4 16
e 4 17
e 4 18
e 4 19
e 4 20
e 5 7
e 5 10
e 5 13
e 5 14
e 5 16
e 5 19
e 5 20
e 6 11
e 6 13
e 6 14
e 6 17
e 6 20
e 7 8
e 7 9
e 7 10
e 7 11
e 7 12
e 7 14
e 7 17
e 7 19
e 8 12
e 8 13
e 8 15
e 8 16
e 8 17
e 8 19
e 8 20
e 9 13
e 9 17
e 9 20
e 10 14
e 10 15
e 10 18
e 10 20
e 11 12
e 11 13
e 11 16
e 11 18
e 11 19
e 11 20
e 12 15
e 12 16
e 12 17
e 12 19
e 13 15
e 13 17
e 13 19
e 13 20
e 14 15
e 14 18
e 15 19
e 16 17
e 16 18
e 16 19
e 16 20
e 17 18
e 17 20
e 18 20
e 19 20
